2036250
46,24,50,93,25,77,78,39,28,11,18,13,14,83,21,80,94,72,6,89,33,27,22,53,45,15,96,41,71,54,74,68,40,17,48,5,12,29,76,59,61,62,92,30,55,20,9,36,69,79,98,31,56,65,47,67,87,66,57,10,97,64,51,58,70,16,23,42,91,38,75,37,0,73,85,60,49,35,34,4,84,90,7,88,52,86,43,26,1,2,63,81,82,44,3,32,95,19,8
